! PBE def2-SVP engrad
%tddft
  NROOTS 2
  IROOT 1
end
* xyzfile 0 1 mol.xyz
