! PBE0 def2-SVP engrad
%tddft
  NROOTS 2
  IROOT 1
end

%pal
 nprocs=8
end

* xyzfile 0 1 mol.xyz
